68 22 24 55 38 49 27 58 56 10 2 4 16 90 60 59 76 34 69 83 79 44 99 53 12 23 0 45 42 13 66 71 57 72 37 74 5 40 17 51 6 9 43 25 19 14 18 41 30 86 98 95 15 65 31 78 63 8 52 36 85 32 29 35 11 64 48 46 70 26 93 33 94 61 7 20 21 84 3 54 47 92 77 73 67 50 89 96 39 88 87 91 75 81 82 80 62 28 97 1